30
1 0 1
2 1 6
3 0 1
3 1 1
3 2 3
4 2 5
5 3 5
5 4 6
6 0 5
6 2 3
6 3 4
6 4 3
7 2 1
7 3 7
7 4 2
7 5 8
8 1 1
8 2 3
8 4 4
9 0 8
9 2 7
9 4 5
9 6 8
9 7 6
10 1 8
10 4 3
10 5 4
10 6 7
10 8 7
10 9 4
11 2 5
11 4 3
11 6 1
11 8 6
11 9 2
11 10 7
12 1 7
12 5 6
12 6 3
12 7 3
12 9 8
13 2 7
13 3 6
13 7 1
13 8 6
13 10 8
13 11 6
13 12 3
14 0 2
14 4 8
14 5 5
14 10 7
14 11 2
14 13 3
15 0 2
15 1 4
15 2 4
15 3 5
15 5 1
15 7 1
15 9 7
15 14 2
16 1 1
16 2 8
16 3 5
16 6 2
16 9 8
16 10 5
16 12 1
16 14 3
17 2 3
17 5 6
17 7 5
17 8 8
17 9 5
17 11 5
17 12 1
17 15 4
18 1 5
18 2 4
18 4 6
18 6 7
18 9 2
18 12 1
18 13 8
18 14 4
18 17 4
19 4 8
19 5 2
19 10 1
19 12 2
19 14 5
19 15 5
19 16 7
20 2 2
20 3 7
20 4 2
20 6 3
20 7 6
20 9 3
20 11 1
20 12 4
20 13 2
20 14 6
20 17 4
21 3 4
21 6 3
21 10 1
21 11 3
21 12 8
21 19 5
21 20 7
22 0 3
22 1 3
22 2 2
22 4 3
22 5 4
22 6 4
22 8 1
22 9 8
22 13 7
22 14 4
22 16 5
22 17 6
22 19 6
23 3 7
23 5 3
23 6 1
23 10 6
23 14 7
23 15 3
23 16 2
23 17 7
23 20 4
23 21 6
23 22 3
24 0 7
24 2 3
24 3 4
24 6 7
24 9 1
24 11 7
24 12 6
24 16 1
24 18 2
24 19 1
25 2 5
25 4 8
25 6 5
25 12 4
25 20 1
25 22 8
25 23 7
26 0 7
26 1 8
26 4 1
26 5 6
26 6 8
26 7 2
26 8 5
26 10 4
26 12 5
26 14 2
26 20 5
26 24 2
26 25 1
27 4 3
27 10 1
27 12 4
27 13 4
27 15 1
27 16 6
27 17 3
27 18 7
27 20 8
27 21 6
27 23 2
27 25 4
27 26 8
28 1 7
28 2 4
28 5 7
28 9 6
28 12 7
28 13 3
28 17 6
28 18 3
28 21 8
28 22 6
28 24 4
28 26 1
28 27 1
29 0 6
29 2 4
29 4 5
29 6 4
29 7 5
29 8 6
29 11 5
29 12 1
29 15 5
29 17 4
29 22 4
29 23 7
29 24 3
29 25 2
29 26 6
29 28 3
